c Reduced graph for p40_0 generated by Cyril Grelier
p edge 86 497
e 1 2
e 1 3
e 1 4
e 1 5
e 1 6
e 1 8
e 1 9
e 1 10
e 1 17
e 1 18
e 1 19
e 1 21
e 1 25
e 1 27
e 1 45
e 1 51
e 1 66
e 2 3
e 2 4
e 2 5
e 2 7
e 2 10
e 2 17
e 2 18
e 2 20
e 2 22
e 2 28
e 2 42
e 2 46
e 2 47
e 2 51
e 2 58
e 2 66
e 3 4
e 3 5
e 3 10
e 3 11
e 3 13
e 3 17
e 3 18
e 3 26
e 3 40
e 3 43
e 3 51
e 3 59
e 3 63
e 3 66
e 4 5
e 4 10
e 4 14
e 4 15
e 4 17
e 4 18
e 4 29
e 4 51
e 4 56
e 4 60
e 4 66
e 4 67
e 4 70
e 5 10
e 5 12
e 5 16
e 5 17
e 5 18
e 5 30
e 5 41
e 5 44
e 5 50
e 5 51
e 5 57
e 5 66
e 6 7
e 6 8
e 6 9
e 6 11
e 6 12
e 6 19
e 6 21
e 6 25
e 6 27
e 6 31
e 6 32
e 6 33
e 6 34
e 6 45
e 7 11
e 7 12
e 7 20
e 7 22
e 7 28
e 7 31
e 7 32
e 7 33
e 7 34
e 7 42
e 7 46
e 7 47
e 7 58
e 8 9
e 8 13
e 8 14
e 8 19
e 8 21
e 8 23
e 8 25
e 8 27
e 8 35
e 8 36
e 8 37
e 8 45
e 8 76
e 9 15
e 9 16
e 9 19
e 9 21
e 9 24
e 9 25
e 9 27
e 9 38
e 9 39
e 9 45
e 9 48
e 9 72
e 10 17
e 10 18
e 10 23
e 10 24
e 10 49
e 10 51
e 10 65
e 10 66
e 10 71
e 10 75
e 11 12
e 11 13
e 11 26
e 11 31
e 11 32
e 11 33
e 11 34
e 11 40
e 11 43
e 11 59
e 11 63
e 12 16
e 12 30
e 12 31
e 12 32
e 12 33
e 12 34
e 12 41
e 12 44
e 12 50
e 12 57
e 13 14
e 13 23
e 13 26
e 13 35
e 13 36
e 13 37
e 13 40
e 13 43
e 13 59
e 13 63
e 13 76
e 14 15
e 14 23
e 14 29
e 14 35
e 14 36
e 14 37
e 14 56
e 14 60
e 14 67
e 14 70
e 14 76
e 15 16
e 15 24
e 15 29
e 15 38
e 15 39
e 15 48
e 15 56
e 15 60
e 15 67
e 15 70
e 15 72
e 16 24
e 16 30
e 16 38
e 16 39
e 16 41
e 16 44
e 16 48
e 16 50
e 16 57
e 16 72
e 17 18
e 17 31
e 17 35
e 17 38
e 17 51
e 17 52
e 17 66
e 17 73
e 18 32
e 18 36
e 18 51
e 18 53
e 18 61
e 18 66
e 18 77
e 19 20
e 19 21
e 19 25
e 19 26
e 19 27
e 19 45
e 19 52
e 19 53
e 19 54
e 19 55
e 20 22
e 20 26
e 20 28
e 20 42
e 20 46
e 20 47
e 20 52
e 20 53
e 20 54
e 20 55
e 20 58
e 21 22
e 21 25
e 21 27
e 21 29
e 21 30
e 21 45
e 21 61
e 21 62
e 22 28
e 22 29
e 22 30
e 22 42
e 22 46
e 22 47
e 22 58
e 22 61
e 22 62
e 23 24
e 23 35
e 23 36
e 23 37
e 23 49
e 23 65
e 23 71
e 23 75
e 23 76
e 24 38
e 24 39
e 24 48
e 24 49
e 24 65
e 24 71
e 24 72
e 24 75
e 25 27
e 25 40
e 25 41
e 25 45
e 25 49
e 25 64
e 25 81
e 26 40
e 26 43
e 26 52
e 26 53
e 26 54
e 26 55
e 26 59
e 26 63
e 27 28
e 27 43
e 27 44
e 27 45
e 27 68
e 27 69
e 28 42
e 28 43
e 28 44
e 28 46
e 28 47
e 28 58
e 28 68
e 28 69
e 29 30
e 29 56
e 29 60
e 29 61
e 29 62
e 29 67
e 29 70
e 30 41
e 30 44
e 30 50
e 30 57
e 30 61
e 30 62
e 31 32
e 31 33
e 31 34
e 31 35
e 31 38
e 31 52
e 31 73
e 32 33
e 32 34
e 32 36
e 32 53
e 32 61
e 32 77
e 33 34
e 33 39
e 33 54
e 33 64
e 33 68
e 33 78
e 34 37
e 34 55
e 34 62
e 34 69
e 34 74
e 35 36
e 35 37
e 35 38
e 35 52
e 35 73
e 35 76
e 36 37
e 36 53
e 36 61
e 36 76
e 36 77
e 37 55
e 37 62
e 37 69
e 37 74
e 37 76
e 38 39
e 38 48
e 38 52
e 38 72
e 38 73
e 39 48
e 39 54
e 39 64
e 39 68
e 39 72
e 39 78
e 40 41
e 40 43
e 40 49
e 40 59
e 40 63
e 40 64
e 40 81
e 41 44
e 41 49
e 41 50
e 41 57
e 41 64
e 41 81
e 42 46
e 42 47
e 42 50
e 42 58
e 42 65
e 42 73
e 42 84
e 43 44
e 43 59
e 43 63
e 43 68
e 43 69
e 44 50
e 44 57
e 44 68
e 44 69
e 45 46
e 45 59
e 45 60
e 45 71
e 46 47
e 46 58
e 46 59
e 46 60
e 46 71
e 47 58
e 47 63
e 47 80
e 47 86
e 48 72
e 48 79
e 48 80
e 48 82
e 48 83
e 49 64
e 49 65
e 49 71
e 49 75
e 49 81
e 50 57
e 50 65
e 50 73
e 50 84
e 51 66
e 51 72
e 51 86
e 52 53
e 52 54
e 52 55
e 52 73
e 53 54
e 53 55
e 53 61
e 53 77
e 54 55
e 54 64
e 54 68
e 54 78
e 55 62
e 55 69
e 55 74
e 56 57
e 56 60
e 56 67
e 56 70
e 56 74
e 56 79
e 56 85
e 57 74
e 57 79
e 57 85
e 58 70
e 58 75
e 58 83
e 59 60
e 59 63
e 59 71
e 60 67
e 60 70
e 60 71
e 61 62
e 61 77
e 62 69
e 62 74
e 63 80
e 63 86
e 64 68
e 64 78
e 64 81
e 65 71
e 65 73
e 65 75
e 65 84
e 66 76
e 67 70
e 67 77
e 67 78
e 67 82
e 68 69
e 68 78
e 69 74
e 70 75
e 70 83
e 71 75
e 72 86
e 73 84
e 74 79
e 74 85
e 75 83
e 77 78
e 77 82
e 78 82
e 79 80
e 79 82
e 79 83
e 79 85
e 80 82
e 80 83
e 80 86
e 81 84
e 81 85
e 82 83
e 84 85
